c CNF file corresponding to a (partial) station packing problem.
p cnf 2088 171
1 2 3 4 5 6 7 8 9 10 11 12 13 14 0
-1 -2 0
-1 -3 0
-1 -4 0
-1 -5 0
-1 -6 0
-1 -7 0
-1 -8 0
-1 -9 0
-1 -10 0
-1 -11 0
-1 -12 0
-1 -13 0
-1 -14 0
-2 -3 0
-2 -4 0
-2 -5 0
-2 -6 0
-2 -7 0
-2 -8 0
-2 -9 0
-2 -10 0
-2 -11 0
-2 -12 0
-2 -13 0
-2 -14 0
-3 -4 0
-3 -5 0
-3 -6 0
-3 -7 0
-3 -8 0
-3 -9 0
-3 -10 0
-3 -11 0
-3 -12 0
-3 -13 0
-3 -14 0
-4 -5 0
-4 -6 0
-4 -7 0
-4 -8 0
-4 -9 0
-4 -10 0
-4 -11 0
-4 -12 0
-4 -13 0
-4 -14 0
-5 -6 0
-5 -7 0
-5 -8 0
-5 -9 0
-5 -10 0
-5 -11 0
-5 -12 0
-5 -13 0
-5 -14 0
-6 -7 0
-6 -8 0
-6 -9 0
-6 -10 0
-6 -11 0
-6 -12 0
-6 -13 0
-6 -14 0
-7 -8 0
-7 -9 0
-7 -10 0
-7 -11 0
-7 -12 0
-7 -13 0
-7 -14 0
-8 -9 0
-8 -10 0
-8 -11 0
-8 -12 0
-8 -13 0
-8 -14 0
-9 -10 0
-9 -11 0
-9 -12 0
-9 -13 0
-9 -14 0
-10 -11 0
-10 -12 0
-10 -13 0
-10 -14 0
-11 -12 0
-11 -13 0
-11 -14 0
-12 -13 0
-12 -14 0
-13 -14 0
-12 -2086 0
-9 -2083 0
-2087 -13 0
-2079 -5 0
-8 -2082 0
-4 -2078 0
-2088 -14 0
-2 -2077 0
-2081 -7 0
-10 -2084 0
-2085 -11 0
-2080 -6 0
2077 2078 2079 2080 2081 2082 2083 2084 2085 2086 2087 2088 0
-2077 -2078 0
-2077 -2079 0
-2077 -2080 0
-2077 -2081 0
-2077 -2082 0
-2077 -2083 0
-2077 -2084 0
-2077 -2085 0
-2077 -2086 0
-2077 -2087 0
-2077 -2088 0
-2078 -2079 0
-2078 -2080 0
-2078 -2081 0
-2078 -2082 0
-2078 -2083 0
-2078 -2084 0
-2078 -2085 0
-2078 -2086 0
-2078 -2087 0
-2078 -2088 0
-2079 -2080 0
-2079 -2081 0
-2079 -2082 0
-2079 -2083 0
-2079 -2084 0
-2079 -2085 0
-2079 -2086 0
-2079 -2087 0
-2079 -2088 0
-2080 -2081 0
-2080 -2082 0
-2080 -2083 0
-2080 -2084 0
-2080 -2085 0
-2080 -2086 0
-2080 -2087 0
-2080 -2088 0
-2081 -2082 0
-2081 -2083 0
-2081 -2084 0
-2081 -2085 0
-2081 -2086 0
-2081 -2087 0
-2081 -2088 0
-2082 -2083 0
-2082 -2084 0
-2082 -2085 0
-2082 -2086 0
-2082 -2087 0
-2082 -2088 0
-2083 -2084 0
-2083 -2085 0
-2083 -2086 0
-2083 -2087 0
-2083 -2088 0
-2084 -2085 0
-2084 -2086 0
-2084 -2087 0
-2084 -2088 0
-2085 -2086 0
-2085 -2087 0
-2085 -2088 0
-2086 -2087 0
-2086 -2088 0
-2087 -2088 0
